db/data/278597189255042220021746276383187278.z3.out
-------------------
2500.063472558
